qe/outputs/qe/qe_queries_wdomain/T=5,eliminate=[I_0,I_1,I_2,I_3,I_4,L_1,L_2,L_3,L_4,B].smt2
; benchmark generated from python API
(set-info :status unknown)
(declare-fun L_0 () Real)
(declare-fun S_4 () Real)
(declare-fun C () Real)
(declare-fun A_1 () Real)
(declare-fun S_2 () Real)
(declare-fun A_0 () Real)
(declare-fun A_2 () Real)
(declare-fun S_3 () Real)
(declare-fun S_1 () Real)
(declare-fun A_3 () Real)
(declare-fun S_0 () Real)
(declare-fun A_4 () Real)
(assert
 (let (($x979 (>= C 5.0)))
 (let ((?x6145 (* (/ 1.0 2.0) A_3)))
 (let ((?x2731 (* (- (/ 1.0 2.0)) A_0)))
 (let ((?x2751 (* (/ 1.0 2.0) S_0)))
 (let ((?x1354 (* (- 1.0) S_3)))
 (let ((?x2738 (* (- (/ 1.0 2.0)) A_4)))
 (let ((?x2721 (* (/ 1.0 2.0) S_4)))
 (let ((?x2765 (* (/ 1.0 2.0) A_1)))
 (let (($x9751 (<= (+ ?x2765 ?x2721 ?x2738 ?x1354 ?x2751 ?x2731 ?x6145) 0.0)))
 (let (($x1832 (<= (+ (* (- 1.0) C) A_2 (* (- 1.0) A_1)) 0.0)))
 (let (($x1453 (<= (+ A_0 C (* (- 1.0) A_1)) 0.0)))
 (let (($x1418 (not $x1453)))
 (let (($x1413 (<= (+ A_0 (* 2.0 C) (* (- 1.0) L_0) ?x1354) 0.0)))
 (let ((?x814 (* (- 1.0) A_2)))
 (let ((?x815 (* (- 1.0) A_0)))
 (let ((?x1417 (* (- 1.0) S_4)))
 (let (($x17722 (not (<= 0.0 (+ A_3 ?x1417 C A_1 S_0 ?x815 ?x814)))))
 (let (($x5708 (<= (+ (* (- 1.0) A_3) S_4 A_2 ?x815 (* (- 2.0) C) L_0) 0.0)))
 (let (($x6738 (not $x5708)))
 (let (($x1416 (<= (+ ?x1417 A_0 (* 3.0 C) (* (- 1.0) L_0)) 0.0)))
 (let (($x29393 (or $x1416 (<= (+ A_1 (* 2.0 C) ?x1417 (* (- 1.0) L_0)) 0.0) $x1832 $x6738 (not (<= 0.0 (+ A_1 (* 2.0 C) ?x1417 S_0 ?x815))) $x17722)))
 (let (($x17796 (not (<= 0.0 (+ A_3 ?x1417 S_0 ?x815)))))
 (let (($x17647 (<= 0.0 (+ A_3 ?x1417 A_0 C (* (- 1.0) L_0) (* (- 1.0) A_1)))))
 (let (($x5820 (<= (+ A_3 ?x1417 (* (- 1.0) L_0)) 0.0)))
 (let (($x2551 (<= (+ A_2 C (* (- 1.0) A_3)) 0.0)))
 (let (($x1776 (not $x1832)))
 (let (($x6725 (<= (+ C ?x1417 A_0 (* (- 1.0) L_0) (* (- 1.0) A_1) A_3) 0.0)))
 (let (($x3247 (<= (+ (* 2.0 C) ?x1417 S_1) 0.0)))
 (let ((?x2772 (* (- (/ 1.0 2.0)) A_1)))
 (let ((?x12271 (* (- (/ 1.0 2.0)) L_0)))
 (let ((?x2777 (* (/ 1.0 2.0) A_0)))
 (let ((?x2722 (* (/ 1.0 2.0) A_2)))
 (let (($x6217 (<= (+ ?x2722 (* (- (/ 1.0 2.0)) C) ?x2721 ?x2738 ?x1354 ?x2751 ?x2731 ?x6145) 0.0)))
 (let (($x3548 (<= (+ A_2 ?x1354 (* (- 1.0) L_0)) 0.0)))
 (let (($x29186 (or $x1413 $x1776 $x3548 $x6217 (<= (+ ?x2722 ?x2721 ?x2738 ?x1354 ?x2777 ?x12271 ?x2772 ?x6145) 0.0))))
 (let (($x8348 (<= (+ (* (- (/ 1.0 2.0)) A_3) ?x2721 ?x2765 ?x1354 ?x2751 ?x2731 ?x2722) 0.0)))
 (let (($x1638 (<= (+ A_1 C ?x1354 (* (- 1.0) L_0)) 0.0)))
 (let (($x1667 (<= (+ A_1 C ?x814) 0.0)))
 (let (($x1602 (not $x1667)))
 (let ((?x1429 (* (- 1.0) S_2)))
 (let ((?x2781 (* (- (/ 1.0 2.0)) C)))
 (let ((?x2778 (* (- (/ 1.0 2.0)) A_2)))
 (let (($x1631 (<= (+ A_1 ?x1429 (* (- 1.0) L_0)) 0.0)))
 (let (($x1431 (<= (+ A_0 C (* (- 1.0) L_0) ?x1429) 0.0)))
 (let (($x12812 (or $x1431 $x1631 (<= (+ ?x2778 ?x2781 ?x2721 ?x2738 A_1 ?x1429 ?x2751 ?x2731 ?x6145) 0.0))))
 (let (($x15445 (or $x1413 $x1638 $x1832 (<= (+ ?x2765 (* (/ 1.0 2.0) C) ?x2721 ?x2738 ?x1354 ?x2751 ?x2731 ?x2722) 0.0))))
 (let (($x8533 (<= (+ A_3 ?x1417 (* (- 1.0) C) (* (- 1.0) A_1) S_2) 0.0)))
 (let ((?x1436 (* (- 1.0) S_1)))
 (let ((?x4334 (* 2.0 S_2)))
 (let ((?x1439 (* (- 1.0) C)))
 (let ((?x805 (* (- 1.0) A_1)))
 (let (($x4007 (<= (+ C ?x1417 S_2) 0.0)))
 (let (($x29188 (or $x4007 (<= (+ A_3 ?x1417 ?x805 ?x1439 ?x4334 ?x1436 A_0 ?x814) 0.0) $x8533)))
 (let (($x29305 (or (not (<= 0.0 (+ A_2 ?x1354 S_0 ?x815))) $x1667 $x3548 (not (<= 0.0 (+ A_2 ?x1354 A_0 C (* (- 1.0) L_0) ?x805))))))
 (let (($x17787 (not (<= 0.0 (+ A_2 C ?x1417 S_0 ?x815)))))
 (let (($x15789 (<= 0.0 (+ A_2 (* 2.0 C) ?x1417 A_0 (* (- 1.0) L_0) ?x805))))
 (let (($x17000 (not $x15789)))
 (let (($x3716 (<= (+ A_2 C ?x1417 (* (- 1.0) L_0)) 0.0)))
 (let (($x2452 (not $x2551)))
 (let (($x2955 (<= (+ S_4 (* (- 1.0) A_4) A_1 ?x1354 C) 0.0)))
 (let (($x11521 (or $x1431 $x1631 (<= (+ (* (- (/ 1.0 2.0)) A_3) ?x2721 ?x1439 ?x2765 ?x1429 ?x2751 ?x2731 ?x2722) 0.0))))
 (let (($x29506 (or (<= (+ A_2 ?x1354 ?x805 S_1) 0.0) (<= (+ ?x1354 C S_1) 0.0))))
 (let (($x6984 (<= (+ (* (- (/ 1.0 2.0)) A_3) ?x2765 (* (/ 1.0 2.0) S_3) ?x2781 ?x1429 ?x2751 ?x2731 ?x2722) 0.0)))
 (let (($x7426 (or $x1431 $x1631 (<= (+ ?x2765 ?x1439 ?x2721 ?x2738 ?x1429 ?x2751 ?x2731 ?x6145) 0.0))))
 (let (($x6362 (or $x1431 $x1631 (<= (+ ?x2765 ?x2781 ?x2721 ?x2738 ?x1429 ?x2751 ?x2731 ?x2722) 0.0))))
 (let (($x5763 (or $x1413 $x1667 (<= (+ (* (- 1.0) A_3) S_4 ?x1439 A_2 ?x1354) 0.0))))
 (let (($x41 (>= A_1 A_0)))
 (let (($x42 (>= A_2 A_1)))
 (let (($x43 (>= A_3 A_2)))
 (let (($x44 (>= A_4 A_3)))
 (and $x44 $x43 $x42 $x41 (or $x1431 (<= (+ S_4 (* (- 1.0) A_4) A_1 ?x1429) 0.0)) (or $x1413 $x1832 $x2955) (<= (+ (* (- 2.0) C) S_3 ?x1429) 0.0) (or $x1431 (<= (+ ?x814 ?x1439 S_3 A_1 ?x1429) 0.0)) (or $x1431 (<= (+ (* (- 1.0) A_3) S_3 A_1 ?x1429) 0.0)) (or $x1413 $x1667 (<= (+ S_4 (* (- 1.0) A_4) A_2 ?x1354) 0.0)) (<= (+ (* (- 3.0) C) S_4 ?x1429) 0.0) (<= (+ (* (- 2.0) C) S_4 ?x1354) 0.0) $x5763 (or $x1431 (<= (+ (* (- 1.0) A_3) S_4 ?x1439 A_1 ?x1429) 0.0)) (or $x1431 (<= (+ ?x814 (* (- 2.0) C) S_4 A_1 ?x1429) 0.0)) (or (<= (+ A_3 ?x1417 ?x814 S_2) 0.0) $x2551) $x6362 (or (not (<= 0.0 (+ A_1 ?x1429 S_0 ?x815))) $x1431 $x1631) $x7426 (or $x1431 $x1631 $x6984) $x29506 $x11521 (or $x1413 $x1602 $x2955) (or (not (<= 0.0 (+ A_3 ?x1417 S_2 ?x814))) $x4007 $x8533) (or $x1413 $x1832 (<= (+ (* (- 1.0) A_3) S_4 A_1 ?x1354) 0.0)) (or $x1453 $x1638 $x1832 $x8348) (or $x1413 $x1602 (<= (+ (* (- 1.0) A_3) S_4 A_1 ?x1354) 0.0)) (or $x2452 $x3247 (<= (+ A_2 C ?x1417 ?x805 S_1) 0.0)) (or $x1453 $x1776 $x3548 $x6217) (or $x1667 $x2452 $x3716 $x17000 $x17787) (or $x1416 $x1776 $x2452 $x3716 $x17000 $x17787) $x29305 $x29188 $x15445 $x12812 (or $x2452 $x4007) (or $x1413 $x1602 $x1638 (not (<= 0.0 (+ C A_1 ?x1354 S_0 ?x815)))) (or $x1453 $x1638 $x1832 $x9751) (or $x1453 $x1832 $x2551 $x17722) (or $x1413 $x1418 $x1832 $x8348) $x29186 (or $x1832 $x3247 (not (<= 0.0 (+ A_3 ?x1417 C S_1 ?x814)))) (or $x2551 $x5820 $x6725 $x6738 $x17722 $x17796) (or $x1776 (<= (+ A_3 ?x1417 ?x805 S_1) 0.0) $x2551) (or $x1776 $x2551 $x5820 (not $x17647) $x17796) $x29393 (or $x1413 $x1418 $x1832 $x9751) $x979 (<= (+ ?x815 L_0 S_0) 0.0) (<= (+ S_4 ?x815 (* (- 4.0) C) L_0) 0.0) (<= (+ ?x805 S_1 L_0) 0.0) (<= (+ S_4 (* (- 1.0) A_4) L_0) 0.0) (<= (+ ?x1436 S_0) 0.0) (<= (+ (* (- 1.0) A_3) S_4 ?x1439 L_0) 0.0) (<= (+ (* (- 1.0) A_3) S_3 L_0) 0.0) (<= (+ ?x1417 S_3) 0.0) (<= (+ ?x1354 S_2) 0.0) (<= (+ ?x815 (* (- 3.0) C) L_0 S_3) 0.0) (<= (+ ?x1429 S_1) 0.0) (<= (+ ?x815 ?x1439 L_0 S_1) 0.0) (<= (+ ?x814 S_2 L_0) 0.0) (<= (+ ?x805 (* (- 2.0) C) S_3 L_0) 0.0) (<= (+ ?x805 ?x1439 S_2 L_0) 0.0) (<= (+ ?x814 ?x1439 S_3 L_0) 0.0) (<= (+ ?x814 (* (- 2.0) C) S_4 L_0) 0.0) (<= (+ ?x815 (* (- 2.0) C) L_0 S_2) 0.0) (<= (+ ?x805 (* (- 3.0) C) S_4 L_0) 0.0)))))))))))))))))))))))))))))))))))))))))))))))))))))))))))))))))))))))))
(check-sat)
